Running for instance ./models/rc102.txt
Optimize a model with 101 rows, 2000 columns and 9271 nonzeros
Variable types: 0 continuous, 2000 integer (0 binary)
Coefficient statistics:
  Matrix range     [1e+00, 1e+00]
  Objective range  [3e+01, 2e+02]
  Bounds range     [1e+00, 1e+00]
  RHS range        [1e+00, 2e+01]
Presolve removed 0 rows and 39 columns
Presolve time: 0.02s
Presolved: 101 rows, 1961 columns, 9099 nonzeros
Variable types: 0 continuous, 1961 integer (1961 binary)

Root relaxation: objective 2.572214e+03, 411 iterations, 0.01 seconds

    Nodes    |    Current Node    |     Objective Bounds      |     Work
 Expl Unexpl |  Obj  Depth IntInf | Incumbent    BestBd   Gap | It/Node Time

     0     0 2572.21379    0   84          - 2572.21379      -     -    0s
     0     0 2584.72055    0   98          - 2584.72055      -     -    0s
     0     0 2587.99625    0   92          - 2587.99625      -     -    0s
     0     0 2587.99625    0  100          - 2587.99625      -     -    0s
     0     0 2588.77550    0  100          - 2588.77550      -     -    0s
     0     0 2590.90369    0  101          - 2590.90369      -     -    0s
     0     0 2590.90369    0  101          - 2590.90369      -     -    0s
     0     2 2590.90369    0  101          - 2590.90369      -     -    0s
*  746   168              12    2645.6073225 2597.19440  1.83%  38.1    0s
H  764   133                    2640.5454418 2598.96980  1.57%  38.1    1s

Cutting planes:
  MIR: 17
  Zero half: 11

Explored 1208 nodes (43951 simplex iterations) in 1.51 seconds
Thread count was 8 (of 8 available processors)

Solution count 2: 2640.55 2645.61 

Optimal solution found (tolerance 1.00e-04)
Best objective 2.640545441802e+03, best bound 2.640545441802e+03, gap 0.0000%
62 67
92 33
69 86
39 44 41
26 27 54
42 38 55
92 71 81
65 23 18
99 57
53 10 17
29 32 85 95
51 56
61 46 5 3
30 31 34 50
63 76 20 48
15 97 59
90 68
88 79 4 2
28 32 94
47 16 9 52
36 40 35 37
45 6 8
14 73 78 13 12
11 87 75
92 64 19 22 49
Distance: 2640.5454418
Execution time:  0.0795442333333  minutes
